unsat
(define-fun inv ((s (_ BitVec 4)) (t (_ BitVec 4))) (_ BitVec 4) (bvlshr #b0111 s))
0.56user 0.00system 0:00.56elapsed 99%CPU (0avgtext+0avgdata 30784maxresident)k
0inputs+8outputs (0major+2313minor)pagefaults 0swaps
